lattice_vector 5.6539999999999999 0.0000000000000000 0.0000000000000000
lattice_vector 0.0000000000000000 5.6539999999999999 0.0000000000000000
lattice_vector 0.0000000000000000 0.0000000000000000 5.6539999999999999
atom_frac 0.0000000000000000 0.0000000000000000 0.0000000000000000 Ga
atom_frac 0.0000000000000000 0.5000000000000000 0.5000000000000000 Ga
atom_frac 0.5000000000000000 0.0000000000000000 0.5000000000000000 Ga
atom_frac 0.5000000000000000 0.5000000000000000 0.0000000000000000 Ga
atom_frac 0.2500000000000000 0.2500000000000000 0.2500000000000000 As
atom_frac 0.7500000000000000 0.7500000000000000 0.2500000000000000 As
atom_frac 0.7500000000000000 0.2500000000000000 0.7500000000000000 As
atom_frac 0.2500000000000000 0.7500000000000000 0.7500000000000000 As
